100 44997
494	651	1079	607	329	869	886	477	635	734	956	442	604	662	798	876	452	427	285	1091	914	676	190	332	1027	992	743	1003	803	388	559	957	1084	787	875	611	632	663	529	634	540	414	674	768	1035	977	865	497	995	902	323	151	369	349	946	640	940	359	1010	537	688	762	678	993	642	401	1088	896	299	864	332	390	267	702	751	1080	419	291	649	804	326	913	716	574	677	1062	248	156	454	919	309	252	736	497	180	1085	598	313	563	138
394	551	979	507	229	769	786	377	535	634	856	342	504	562	698	776	352	327	185	991	814	576	90	232	927	892	643	903	703	288	459	857	984	687	775	511	532	563	429	534	440	314	574	668	935	877	765	397	895	802	223	51	269	249	846	540	840	259	910	437	588	662	578	893	542	301	988	796	199	764	232	290	167	602	651	980	319	191	549	704	226	813	616	474	577	962	148	56	354	819	209	152	636	397	80	985	498	213	463	38

